(set-logic QF_SLIA)
(declare-const result String)
(declare-const attack String)
(declare-const prefix RegLan)
(declare-const infix RegLan)
(declare-const postfix RegLan)
(declare-const postfixs String)

(assert (str.in_re attack (re.++ prefix ((_ re.loop 10000 10000) infix) postfix)))
(assert (= prefix 
     (re.++  (re.++  (str.to_re "\x64") (re.++  (str.to_re "\x61") (re.++  (str.to_re "\x74") (re.++  (str.to_re "\x61") (re.++  (str.to_re "\x3a") (re.++ (re.* re.allchar )  (str.to_re "\x2c")))))))  (re.inter (re.* re.allchar )  (re.++   (re.union (re.union (str.to_re "\t") (str.to_re "\n") (str.to_re "\r") (str.to_re " ")) (re.inter re.allchar (re.comp (re.union (str.to_re "\t") (str.to_re "\n") (str.to_re "\r") (str.to_re " "))))) (re.*   (re.union (re.union (str.to_re "\t") (str.to_re "\n") (str.to_re "\r") (str.to_re " ")) (re.inter re.allchar (re.comp (re.union (str.to_re "\t") (str.to_re "\n") (str.to_re "\r") (str.to_re " "))))) ))))
))
(assert (= infix 
         (re.++  (re.++ (re.*  (re.union  (str.to_re "\x0a")  (str.to_re "\x0d")) ) (re.*  (re.union  (str.to_re "\x0a")  (str.to_re "\x0d")) )) (re.++  (str.to_re "\x26") (re.++  (re.++ (re.*  (re.union  (str.to_re "\x0a")  (str.to_re "\x0d")) ) (re.++  (str.to_re "\x5c\x23") (re.*  (re.union  (str.to_re "\x0a")  (str.to_re "\x0d")) ))) (re.++  (str.to_re "\x26") (re.+ re.allchar )))))
))
(assert (= postfix 
         (re.inter  (re.++  (str.to_re "\x23") (re.*  (re.union (re.union (str.to_re "\t") (str.to_re "\n") (str.to_re "\r") (str.to_re " ")) (re.inter re.allchar (re.comp (re.union (str.to_re "\t") (str.to_re "\n") (str.to_re "\r") (str.to_re " "))))) )) (re.comp  (re.inter (re.* re.allchar )  (re.++   (re.union (re.union (str.to_re "\t") (str.to_re "\n") (str.to_re "\r") (str.to_re " ")) (re.inter re.allchar (re.comp (re.union (str.to_re "\t") (str.to_re "\n") (str.to_re "\r") (str.to_re " "))))) (re.*   (re.union (re.union (str.to_re "\t") (str.to_re "\n") (str.to_re "\r") (str.to_re " ")) (re.inter re.allchar (re.comp (re.union (str.to_re "\t") (str.to_re "\n") (str.to_re "\r") (str.to_re " "))))) )))))
))
(assert (str.in_re postfixs postfix))
(assert (>= (str.len postfixs) 1))
(assert (= result (str.++ attack postfixs)))
(check-sat)
(get-model)